FourierSAT_Github_AIJ/benchmarks/MAXSAT_benchmarks/3/bipartite/maxcut-140-630-0.7/maxcut-140-630-0.7-21.cnf
c strEdges: 189  randomEdges: 441 
c degrees:  2  3 
c girth: 10 max: 8.032766  
c Hgirth mixed MAXCUT instance
c generated from an undirected graph
c to solve unweighted MaxCut
p cnf 140 1260
107 85 0
-107 -85 0
107 23 0
-107 -23 0
107 33 0
-107 -33 0
11 121 0
-11 -121 0
11 34 0
-11 -34 0
11 39 0
-11 -39 0
7 94 0
-7 -94 0
7 44 0
-7 -44 0
70 12 0
-70 -12 0
70 106 0
-70 -106 0
70 78 0
-70 -78 0
137 129 0
-137 -129 0
137 125 0
-137 -125 0
137 46 0
-137 -46 0
22 79 0
-22 -79 0
22 6 0
-22 -6 0
22 106 0
-22 -106 0
136 108 0
-136 -108 0
136 67 0
-136 -67 0
19 124 0
-19 -124 0
19 12 0
-19 -12 0
19 86 0
-19 -86 0
63 131 0
-63 -131 0
63 100 0
-63 -100 0
63 56 0
-63 -56 0
128 119 0
-128 -119 0
128 59 0
-128 -59 0
65 58 0
-65 -58 0
65 53 0
-65 -53 0
65 131 0
-65 -131 0
51 139 0
-51 -139 0
51 43 0
-51 -43 0
51 118 0
-51 -118 0
13 80 0
-13 -80 0
13 94 0
-13 -94 0
13 125 0
-13 -125 0
101 106 0
-101 -106 0
101 85 0
-101 -85 0
110 23 0
-110 -23 0
110 5 0
-110 -5 0
45 56 0
-45 -56 0
45 129 0
-45 -129 0
45 49 0
-45 -49 0
25 77 0
-25 -77 0
25 58 0
-25 -58 0
25 81 0
-25 -81 0
15 42 0
-15 -42 0
15 114 0
-15 -114 0
15 59 0
-15 -59 0
57 32 0
-57 -32 0
57 116 0
-57 -116 0
57 48 0
-57 -48 0
83 6 0
-83 -6 0
83 82 0
-83 -82 0
83 115 0
-83 -115 0
10 3 0
-10 -3 0
10 72 0
-10 -72 0
10 132 0
-10 -132 0
123 43 0
-123 -43 0
123 82 0
-123 -82 0
123 108 0
-123 -108 0
97 118 0
-97 -118 0
97 32 0
-97 -32 0
97 117 0
-97 -117 0
74 117 0
-74 -117 0
74 67 0
-74 -67 0
74 3 0
-74 -3 0
21 126 0
-21 -126 0
21 111 0
-21 -111 0
21 14 0
-21 -14 0
89 120 0
-89 -120 0
89 34 0
-89 -34 0
92 48 0
-92 -48 0
92 42 0
-92 -42 0
92 78 0
-92 -78 0
127 104 0
-127 -104 0
127 58 0
-127 -58 0
127 139 0
-127 -139 0
31 59 0
-31 -59 0
31 52 0
-31 -52 0
31 68 0
-31 -68 0
75 81 0
-75 -81 0
75 44 0
-75 -44 0
75 3 0
-75 -3 0
73 39 0
-73 -39 0
73 80 0
-73 -80 0
98 4 0
-98 -4 0
98 40 0
-98 -40 0
98 39 0
-98 -39 0
60 5 0
-60 -5 0
60 139 0
-60 -139 0
60 20 0
-60 -20 0
103 18 0
-103 -18 0
103 79 0
-103 -79 0
103 105 0
-103 -105 0
17 41 0
-17 -41 0
17 77 0
-17 -77 0
17 121 0
-17 -121 0
2 111 0
-2 -111 0
2 47 0
-2 -47 0
2 88 0
-2 -88 0
29 115 0
-29 -115 0
29 37 0
-29 -37 0
29 91 0
-29 -91 0
55 35 0
-55 -35 0
55 117 0
-55 -117 0
55 124 0
-55 -124 0
64 88 0
-64 -88 0
64 49 0
-64 -49 0
64 23 0
-64 -23 0
87 68 0
-87 -68 0
87 85 0
-87 -85 0
87 134 0
-87 -134 0
38 53 0
-38 -53 0
38 68 0
-38 -68 0
93 34 0
-93 -34 0
93 91 0
-93 -91 0
27 40 0
-27 -40 0
27 42 0
-27 -42 0
27 14 0
-27 -14 0
122 28 0
-122 -28 0
122 96 0
-122 -96 0
122 86 0
-122 -86 0
130 52 0
-130 -52 0
130 95 0
-130 -95 0
26 46 0
-26 -46 0
26 18 0
-26 -18 0
26 41 0
-26 -41 0
54 33 0
-54 -33 0
54 80 0
-54 -80 0
54 35 0
-54 -35 0
69 96 0
-69 -96 0
69 52 0
-69 -52 0
8 134 0
-8 -134 0
8 126 0
-8 -126 0
8 94 0
-8 -94 0
112 72 0
-112 -72 0
112 46 0
-112 -46 0
112 28 0
-112 -28 0
135 140 0
-135 -140 0
135 108 0
-135 -108 0
135 119 0
-135 -119 0
9 86 0
-9 -86 0
9 111 0
-9 -111 0
90 125 0
-90 -125 0
90 104 0
-90 -104 0
90 114 0
-90 -114 0
113 114 0
-113 -114 0
113 1 0
-113 -1 0
113 120 0
-113 -120 0
50 91 0
-50 -91 0
50 20 0
-50 -20 0
50 100 0
-50 -100 0
76 67 0
-76 -67 0
76 4 0
-76 -4 0
71 44 0
-71 -44 0
71 115 0
-71 -115 0
30 1 0
-30 -1 0
30 131 0
-30 -131 0
30 124 0
-30 -124 0
36 37 0
-36 -37 0
36 35 0
-36 -35 0
99 49 0
-99 -49 0
99 48 0
-99 -48 0
109 47 0
-109 -47 0
109 140 0
-109 -140 0
109 121 0
-109 -121 0
62 116 0
-62 -116 0
62 37 0
-62 -37 0
62 53 0
-62 -53 0
16 14 0
-16 -14 0
16 132 0
-16 -132 0
66 82 0
-66 -82 0
66 129 0
-66 -129 0
102 20 0
-102 -20 0
102 140 0
-102 -140 0
24 95 0
-24 -95 0
24 4 0
-24 -4 0
24 88 0
-24 -88 0
84 78 0
-84 -78 0
84 81 0
-84 -81 0
61 105 0
-61 -105 0
61 134 0
-61 -134 0
61 32 0
-61 -32 0
133 100 0
-133 -100 0
133 95 0
-133 -95 0
133 105 0
-133 -105 0
138 132 0
-138 -132 0
138 5 0
-138 -5 0
7 97 0
-7 -97 0
8 4 0
-8 -4 0
11 15 0
-11 -15 0
119 49 0
-119 -49 0
136 17 0
-136 -17 0
112 49 0
-112 -49 0
119 104 0
-119 -104 0
128 86 0
-128 -86 0
66 59 0
-66 -59 0
130 16 0
-130 -16 0
109 115 0
-109 -115 0
63 65 0
-63 -65 0
89 33 0
-89 -33 0
87 140 0
-87 -140 0
92 84 0
-92 -84 0
93 49 0
-93 -49 0
35 95 0
-35 -95 0
121 129 0
-121 -129 0
35 132 0
-35 -132 0
77 37 0
-77 -37 0
106 39 0
-106 -39 0
110 80 0
-110 -80 0
58 3 0
-58 -3 0
73 116 0
-73 -116 0
139 67 0
-139 -67 0
71 18 0
-71 -18 0
22 84 0
-22 -84 0
124 6 0
-124 -6 0
66 104 0
-66 -104 0
15 52 0
-15 -52 0
63 121 0
-63 -121 0
42 68 0
-42 -68 0
121 42 0
-121 -42 0
98 81 0
-98 -81 0
138 100 0
-138 -100 0
127 93 0
-127 -93 0
36 20 0
-36 -20 0
60 87 0
-60 -87 0
40 100 0
-40 -100 0
108 18 0
-108 -18 0
102 139 0
-102 -139 0
86 1 0
-86 -1 0
2 140 0
-2 -140 0
98 64 0
-98 -64 0
130 9 0
-130 -9 0
65 132 0
-65 -132 0
15 121 0
-15 -121 0
7 62 0
-7 -62 0
61 49 0
-61 -49 0
119 41 0
-119 -41 0
11 32 0
-11 -32 0
139 114 0
-139 -114 0
17 76 0
-17 -76 0
6 18 0
-6 -18 0
75 99 0
-75 -99 0
110 75 0
-110 -75 0
90 120 0
-90 -120 0
127 60 0
-127 -60 0
5 46 0
-5 -46 0
115 88 0
-115 -88 0
61 118 0
-61 -118 0
40 78 0
-40 -78 0
84 126 0
-84 -126 0
19 130 0
-19 -130 0
122 76 0
-122 -76 0
70 85 0
-70 -85 0
122 16 0
-122 -16 0
18 41 0
-18 -41 0
51 140 0
-51 -140 0
24 118 0
-24 -118 0
80 95 0
-80 -95 0
11 106 0
-11 -106 0
74 35 0
-74 -35 0
124 39 0
-124 -39 0
135 68 0
-135 -68 0
54 16 0
-54 -16 0
80 41 0
-80 -41 0
32 43 0
-32 -43 0
102 88 0
-102 -88 0
98 6 0
-98 -6 0
70 128 0
-70 -128 0
112 135 0
-112 -135 0
106 1 0
-106 -1 0
93 8 0
-93 -8 0
58 111 0
-58 -111 0
87 8 0
-87 -8 0
101 72 0
-101 -72 0
8 9 0
-8 -9 0
113 95 0
-113 -95 0
49 100 0
-49 -100 0
51 134 0
-51 -134 0
17 46 0
-17 -46 0
98 105 0
-98 -105 0
9 61 0
-9 -61 0
73 32 0
-73 -32 0
70 130 0
-70 -130 0
92 41 0
-92 -41 0
96 134 0
-96 -134 0
61 23 0
-61 -23 0
79 88 0
-79 -88 0
57 98 0
-57 -98 0
25 35 0
-25 -35 0
92 58 0
-92 -58 0
75 103 0
-75 -103 0
123 104 0
-123 -104 0
112 1 0
-112 -1 0
66 40 0
-66 -40 0
97 86 0
-97 -86 0
137 36 0
-137 -36 0
73 18 0
-73 -18 0
29 84 0
-29 -84 0
26 133 0
-26 -133 0
84 108 0
-84 -108 0
31 80 0
-31 -80 0
8 42 0
-8 -42 0
76 120 0
-76 -120 0
27 94 0
-27 -94 0
12 78 0
-12 -78 0
32 78 0
-32 -78 0
51 116 0
-51 -116 0
11 1 0
-11 -1 0
118 81 0
-118 -81 0
6 96 0
-6 -96 0
97 62 0
-97 -62 0
87 125 0
-87 -125 0
9 120 0
-9 -120 0
130 67 0
-130 -67 0
15 58 0
-15 -58 0
45 44 0
-45 -44 0
48 132 0
-48 -132 0
30 77 0
-30 -77 0
114 67 0
-114 -67 0
13 37 0
-13 -37 0
13 96 0
-13 -96 0
77 18 0
-77 -18 0
97 140 0
-97 -140 0
15 40 0
-15 -40 0
75 129 0
-75 -129 0
136 83 0
-136 -83 0
62 80 0
-62 -80 0
136 123 0
-136 -123 0
89 79 0
-89 -79 0
103 48 0
-103 -48 0
131 56 0
-131 -56 0
62 35 0
-62 -35 0
88 14 0
-88 -14 0
118 39 0
-118 -39 0
3 40 0
-3 -40 0
39 41 0
-39 -41 0
57 44 0
-57 -44 0
2 125 0
-2 -125 0
50 42 0
-50 -42 0
57 68 0
-57 -68 0
73 85 0
-73 -85 0
65 6 0
-65 -6 0
107 92 0
-107 -92 0
83 93 0
-83 -93 0
124 58 0
-124 -58 0
57 33 0
-57 -33 0
137 2 0
-137 -2 0
137 25 0
-137 -25 0
11 62 0
-11 -62 0
93 81 0
-93 -81 0
2 132 0
-2 -132 0
91 49 0
-91 -49 0
137 5 0
-137 -5 0
87 112 0
-87 -112 0
16 77 0
-16 -77 0
63 42 0
-63 -42 0
11 100 0
-11 -100 0
120 114 0
-120 -114 0
79 119 0
-79 -119 0
103 4 0
-103 -4 0
7 101 0
-7 -101 0
111 132 0
-111 -132 0
56 5 0
-56 -5 0
31 102 0
-31 -102 0
113 116 0
-113 -116 0
83 123 0
-83 -123 0
77 105 0
-77 -105 0
90 35 0
-90 -35 0
98 140 0
-98 -140 0
19 84 0
-19 -84 0
127 106 0
-127 -106 0
29 46 0
-29 -46 0
8 135 0
-8 -135 0
137 132 0
-137 -132 0
74 29 0
-74 -29 0
93 3 0
-93 -3 0
63 38 0
-63 -38 0
93 61 0
-93 -61 0
102 129 0
-102 -129 0
32 5 0
-32 -5 0
19 101 0
-19 -101 0
58 118 0
-58 -118 0
135 115 0
-135 -115 0
32 81 0
-32 -81 0
51 38 0
-51 -38 0
107 99 0
-107 -99 0
61 108 0
-61 -108 0
106 59 0
-106 -59 0
10 34 0
-10 -34 0
29 72 0
-29 -72 0
45 97 0
-45 -97 0
107 15 0
-107 -15 0
75 124 0
-75 -124 0
25 139 0
-25 -139 0
136 60 0
-136 -60 0
73 47 0
-73 -47 0
62 28 0
-62 -28 0
7 33 0
-7 -33 0
10 140 0
-10 -140 0
137 41 0
-137 -41 0
29 82 0
-29 -82 0
81 67 0
-81 -67 0
58 52 0
-58 -52 0
1 82 0
-1 -82 0
110 102 0
-110 -102 0
55 80 0
-55 -80 0
103 3 0
-103 -3 0
43 52 0
-43 -52 0
45 116 0
-45 -116 0
89 56 0
-89 -56 0
41 34 0
-41 -34 0
32 4 0
-32 -4 0
66 118 0
-66 -118 0
7 112 0
-7 -112 0
70 98 0
-70 -98 0
29 43 0
-29 -43 0
121 117 0
-121 -117 0
80 52 0
-80 -52 0
129 52 0
-129 -52 0
38 124 0
-38 -124 0
21 120 0
-21 -120 0
109 32 0
-109 -32 0
113 109 0
-113 -109 0
61 37 0
-61 -37 0
27 99 0
-27 -99 0
130 6 0
-130 -6 0
128 81 0
-128 -81 0
70 28 0
-70 -28 0
33 134 0
-33 -134 0
127 32 0
-127 -32 0
109 23 0
-109 -23 0
90 133 0
-90 -133 0
64 20 0
-64 -20 0
103 71 0
-103 -71 0
31 124 0
-31 -124 0
45 72 0
-45 -72 0
42 118 0
-42 -118 0
70 96 0
-70 -96 0
84 131 0
-84 -131 0
64 134 0
-64 -134 0
12 125 0
-12 -125 0
120 78 0
-120 -78 0
110 28 0
-110 -28 0
75 112 0
-75 -112 0
51 85 0
-51 -85 0
57 127 0
-57 -127 0
51 91 0
-51 -91 0
24 111 0
-24 -111 0
92 140 0
-92 -140 0
66 46 0
-66 -46 0
35 14 0
-35 -14 0
109 106 0
-109 -106 0
112 50 0
-112 -50 0
86 125 0
-86 -125 0
76 36 0
-76 -36 0
51 96 0
-51 -96 0
54 129 0
-54 -129 0
16 58 0
-16 -58 0
15 35 0
-15 -35 0
62 102 0
-62 -102 0
92 56 0
-92 -56 0
12 88 0
-12 -88 0
98 121 0
-98 -121 0
55 56 0
-55 -56 0
122 66 0
-122 -66 0
98 106 0
-98 -106 0
45 74 0
-45 -74 0
69 36 0
-69 -36 0
110 16 0
-110 -16 0
106 48 0
-106 -48 0
92 5 0
-92 -5 0
69 108 0
-69 -108 0
69 106 0
-69 -106 0
25 87 0
-25 -87 0
126 140 0
-126 -140 0
69 71 0
-69 -71 0
66 133 0
-66 -133 0
8 12 0
-8 -12 0
58 34 0
-58 -34 0
54 24 0
-54 -24 0
138 58 0
-138 -58 0
31 76 0
-31 -76 0
127 108 0
-127 -108 0
12 48 0
-12 -48 0
26 116 0
-26 -116 0
31 138 0
-31 -138 0
62 67 0
-62 -67 0
11 23 0
-11 -23 0
94 40 0
-94 -40 0
42 20 0
-42 -20 0
138 47 0
-138 -47 0
36 66 0
-36 -66 0
29 94 0
-29 -94 0
119 67 0
-119 -67 0
129 34 0
-129 -34 0
42 104 0
-42 -104 0
123 76 0
-123 -76 0
21 38 0
-21 -38 0
8 84 0
-8 -84 0
45 76 0
-45 -76 0
97 135 0
-97 -135 0
45 115 0
-45 -115 0
53 125 0
-53 -125 0
51 119 0
-51 -119 0
90 106 0
-90 -106 0
92 12 0
-92 -12 0
65 115 0
-65 -115 0
121 111 0
-121 -111 0
15 8 0
-15 -8 0
32 44 0
-32 -44 0
61 42 0
-61 -42 0
136 91 0
-136 -91 0
87 9 0
-87 -9 0
130 23 0
-130 -23 0
75 132 0
-75 -132 0
107 123 0
-107 -123 0
77 96 0
-77 -96 0
3 88 0
-3 -88 0
112 134 0
-112 -134 0
99 84 0
-99 -84 0
99 1 0
-99 -1 0
63 14 0
-63 -14 0
11 4 0
-11 -4 0
19 82 0
-19 -82 0
65 54 0
-65 -54 0
109 124 0
-109 -124 0
127 34 0
-127 -34 0
55 32 0
-55 -32 0
130 100 0
-130 -100 0
79 68 0
-79 -68 0
70 38 0
-70 -38 0
93 26 0
-93 -26 0
18 134 0
-18 -134 0
25 18 0
-25 -18 0
38 26 0
-38 -26 0
135 139 0
-135 -139 0
117 20 0
-117 -20 0
18 47 0
-18 -47 0
5 41 0
-5 -41 0
138 124 0
-138 -124 0
128 67 0
-128 -67 0
19 134 0
-19 -134 0
24 104 0
-24 -104 0
101 26 0
-101 -26 0
27 24 0
-27 -24 0
63 61 0
-63 -61 0
92 73 0
-92 -73 0
71 134 0
-71 -134 0
87 139 0
-87 -139 0
76 72 0
-76 -72 0
51 47 0
-51 -47 0
22 83 0
-22 -83 0
89 54 0
-89 -54 0
65 77 0
-65 -77 0
83 91 0
-83 -91 0
65 62 0
-65 -62 0
54 115 0
-54 -115 0
64 121 0
-64 -121 0
73 139 0
-73 -139 0
66 1 0
-66 -1 0
36 49 0
-36 -49 0
98 49 0
-98 -49 0
51 31 0
-51 -31 0
30 28 0
-30 -28 0
92 1 0
-92 -1 0
63 83 0
-63 -83 0
121 46 0
-121 -46 0
24 105 0
-24 -105 0
17 68 0
-17 -68 0
119 35 0
-119 -35 0
137 84 0
-137 -84 0
66 67 0
-66 -67 0
98 34 0
-98 -34 0
124 52 0
-124 -52 0
60 121 0
-60 -121 0
87 100 0
-87 -100 0
92 86 0
-92 -86 0
106 126 0
-106 -126 0
124 72 0
-124 -72 0
67 78 0
-67 -78 0
77 3 0
-77 -3 0
125 78 0
-125 -78 0
122 53 0
-122 -53 0
112 52 0
-112 -52 0
9 76 0
-9 -76 0
9 124 0
-9 -124 0
88 53 0
-88 -53 0
117 116 0
-117 -116 0
97 61 0
-97 -61 0
45 25 0
-45 -25 0
25 56 0
-25 -56 0
89 116 0
-89 -116 0
137 29 0
-137 -29 0
79 100 0
-79 -100 0
98 78 0
-98 -78 0
139 34 0
-139 -34 0
31 79 0
-31 -79 0
75 53 0
-75 -53 0
62 115 0
-62 -115 0
126 49 0
-126 -49 0
110 126 0
-110 -126 0
11 18 0
-11 -18 0
19 93 0
-19 -93 0
93 99 0
-93 -99 0
79 80 0
-79 -80 0
76 1 0
-76 -1 0
53 116 0
-53 -116 0
127 129 0
-127 -129 0
134 20 0
-134 -20 0
58 42 0
-58 -42 0
2 106 0
-2 -106 0
15 74 0
-15 -74 0
58 43 0
-58 -43 0
69 40 0
-69 -40 0
18 116 0
-18 -116 0
3 86 0
-3 -86 0
25 83 0
-25 -83 0
103 44 0
-103 -44 0
127 14 0
-127 -14 0
61 86 0
-61 -86 0
99 116 0
-99 -116 0
86 44 0
-86 -44 0
46 33 0
-46 -33 0
104 47 0
-104 -47 0
8 53 0
-8 -53 0
52 86 0
-52 -86 0
10 114 0
-10 -114 0
96 86 0
-96 -86 0
